1618952
13,54,19,49,23,60,1,12,42,32,56,40,5,29,41,64,67,38,7,43,46,34,55,26,66,11,6,25,30,21,3,61,24,63,16,59,8,68,35,51,39,62,37,53,44,14,10,18,57,33,52,22,31,28,50,36,15,58,9,17,27,45,65,2,48,20,4,47